PROBLEM NAME: eil51_n7
KNAPSACK DATA TYPE: uncorrelated
DIMENSION: 7
NUMBER OF ITEMS: 60
CAPACITY OF KNAPSACK: 30142
MIN SPEED: 0.1
MAX SPEED: 1
RENTING RATIO: 51.09
EDGE_WEIGHT_TYPE: CEIL_2D
NODE_COORD_SECTION	(INDEX, X, Y):
1	42	57
2	7	38
3	30	48
4	45	35
5	5	6
6	56	37
7	30	40
ITEMS SECTION	(INDEX, PROFIT, WEIGHT, ASSIGNED NODE NUMBER):
1	995	517	3
2	988	595	3
3	971	41	3
4	954	798	3
5	939	994	3
6	925	721	3
7	903	776	3
8	899	139	3
9	898	902	3
10	891	532	3
11	887	709	7
12	867	970	7
13	832	220	7
14	832	322	7
15	829	586	7
16	808	906	7
17	801	949	7
18	727	724	7
19	716	727	7
20	710	416	7
21	695	647	2
22	685	572	2
23	632	343	2
24	603	384	2
25	602	326	2
26	572	300	2
27	548	340	2
28	539	953	2
29	537	551	2
30	518	149	2
31	514	512	5
32	468	137	5
33	450	624	5
34	445	858	5
35	434	925	5
36	431	493	5
37	406	386	5
38	383	736	5
39	383	700	5
40	377	652	5
41	348	380	4
42	343	581	4
43	308	4	4
44	307	782	4
45	281	930	4
46	272	208	4
47	244	607	4
48	239	364	4
49	218	428	4
50	212	811	4
51	192	116	6
52	165	338	6
53	147	471	6
54	138	148	6
55	133	239	6
56	122	512	6
57	116	909	6
58	111	453	6
59	106	893	6
60	91	851	6
